problem_generation/data/GISP/train/er_n=68_m=1347_p=0.60_SET2_setparam=100.00_alpha=0.50_424.lp
maximize
OBJ:100x0 + 100x1 + 100x2 + 100x3 + 100x4 + 100x5 + 100x6 + 100x7 + 100x8 + 100x9 + 100x10 + 100x11 + 100x12 + 100x13 + 100x14 + 100x15 + 100x16 + 100x17 + 100x18 + 100x19 + 100x20 + 100x21 + 100x22 + 100x23 + 100x24 + 100x25 + 100x26 + 100x27 + 100x28 + 100x29 + 100x30 + 100x31 + 100x32 + 100x33 + 100x34 + 100x35 + 100x36 + 100x37 + 100x38 + 100x39 + 100x40 + 100x41 + 100x42 + 100x43 + 100x44 + 100x45 + 100x46 + 100x47 + 100x48 + 100x49 + 100x50 + 100x51 + 100x52 + 100x53 + 100x54 + 100x55 + 100x56 + 100x57 + 100x58 + 100x59 + 100x60 + 100x61 + 100x62 + 100x63 + 100x64 + 100x65 + 100x66 + 100x67 - y15_21 - y55_57 - y7_17 - y47_53 - y26_39 - y28_58 - y29_41 - y21_37 - y0_14 - y21_46 - y0_23 - y6_66 - y41_42 - y33_38 - y25_34 - y10_45 - y25_43 - y44_56 - y25_52 - y14_15 - y51_64 - y14_24 - y3_33 - y35_65 - y14_42 - y15_16 - y36_48 - y47_48 - y55_61 - y18_21 - y36_66 - y29_36 - y9_67 - y48_49 - y29_63 - y21_59 - y25_29 - y33_42 - y25_38 - y10_49 - y44_51 - y10_58 - y22_23 - y14_19 - y43_55 - y13_51 - y1_67 - y16_65 - y7_16 - y47_52 - y55_65 - y5_55 - y29_40 - y6_47 - y21_45 - y54_60 - y10_44 - y12_63 - y25_42 - y3_5 - y43_50 - y22_27 - y14_23 - y43_59 - y1_53 - y7_11 - y55_60 - y47_56 - y17_52 - y17_61 - y9_57 - y6_42 - y29_44 - y39_57 - y2_17 - y54_55 - y10_30 - y20_62 - y31_62 - y10_39 - y23_58 - y32_36 - y23_67 - y3_9 - y32_45 - y13_41 - y14_18 - y16_37 - y13_50 - y43_63 - y16_46 - y17_20 - y36_42 - y36_51 - y9_34 - y47_51 - y28_47 - y17_56 - y6_19 - y28_56 - y6_28 - y61_62 - y6_37 - y20_39 - y2_12 - y12_44 - y2_21 - y2_30 - y12_62 - y23_62 - y3_4 - y16_32 - y35_54 - y13_63 - y35_63 - y5_22 - y17_24 - y46_60 - y28_33 - y3_47 - y9_29 - y5_40 - y9_38 - y5_49 - y5_58 - y6_32 - y8_51 - y21_30 - y61_66 - y8_60 - y11_56 - y31_34 - y0_65 - y11_65 - y2_7 - y20_43 - y39_56 - y23_39 - y23_48 - y13_22 - y4_53 - y12_66 - y1_29 - y13_31 - y53_67 - y13_40 - y1_47 - y24_49 - y46_55 - y49_51 - y5_35 - y17_37 - y7_63 - y6_9 - y6_18 - y8_46 - y42_48 - y50_61 - y19_55 - y20_29 - y0_60 - y11_60 - y39_42 - y39_51 - y23_34 - y2_11 - y20_47 - y31_47 - y39_60 - y31_56 - y12_52 - y31_65 - y1_24 - y4_57 - y16_22 - y4_66 - y46_59 - y57_59 - y15_53 - y26_53 - y49_64 - y18_58 - y27_36 - y18_67 - y27_45 - y19_41 - y30_41 - y19_50 - y42_52 - y19_59 - y42_61 - y12_20 - y23_29 - y20_42 - y20_51 - y23_47 - y1_10 - y12_56 - y1_19 - y13_21 - y13_30 - y53_66 - y64_66 - y45_62 - y56_62 - y1_37 - y1_46 - y5_16 - y46_54 - y9_14 - y46_63 - y7_44 - y27_40 - y19_36 - y30_36 - y27_49 - y8_45 - y19_45 - y27_58 - y11_41 - y42_47 - y8_54 - y19_54 - y30_63 - y20_28 - y0_59 - y31_37 - y13_16 - y4_47 - y34_48 - y53_61 - y37_44 - y22_55 - y45_57 - y1_32 - y3_51 - y56_57 - y56_66 - y3_60 - y14_60 - y38_45 - y46_58 - y7_39 - y18_39 - y38_54 - y57_58 - y7_48 - y8_13 - y26_61 - y7_57 - y0_18 - y48_67 - y11_27 - y63_65 - y8_40 - y19_40 - y30_40 - y30_49 - y11_45 - y20_23 - y0_54 - y11_54 - y12_19 - y31_32 - y4_15 - y52_64 - y25_65 - y37_39 - y45_52 - y64_65 - y3_46 - y14_46 - y34_61 - y37_48 - y3_55 - y37_57 - y14_64 - y3_64 - y26_29 - y7_25 - y7_34 - y15_47 - y18_52 - y26_65 - y18_61 - y8_26 - y19_26 - y11_22 - y29_58 - y8_35 - y19_35 - y8_44 - y21_63 - y0_40 - y11_49 - y44_46 - y10_53 - y33_55 - y33_64 - y2_58 - y3_32 - y45_47 - y3_41 - y22_54 - y34_56 - y56_65 - y3_59 - y14_59 - y37_61 - y15_33 - y15_51 - y26_51 - y11_17 - y48_66 - y0_26 - y6_60 - y29_62 - y21_58 - y11_35 - y21_67 - y41_45 - y41_54 - y52_54 - y10_48 - y44_50 - y25_46 - y2_53 - y37_38 - y15_28 - y18_24 - y47_60 - y26_37 - y0_12 - y40_48 - y19_25 - y21_44 - y6_55 - y11_21 - y40_57 - y21_62 - y33_36 - y41_58 - y25_41 - y44_54 - y2_48 - y34_37 - y32_67 - y22_53 - y26_32 - y28_51 - y47_64 - y28_60 - y9_65 - y6_41 - y40_43 - y0_16 - y21_48 - y21_57 - y2_25 - y25_27 - y33_40 - y10_47 - y44_49 - y2_43 - y3_8 - y51_57 - y25_54 - y32_62 - y3_35 - y14_44 - y16_63 - y36_50 - y36_59 - y9_42 - y59_61 - y17_55 - y9_51 - y5_62 - y6_27 - y28_64 - y9_60 - y29_38 - y6_45 - y21_61 - y2_20 - y54_67 - y10_42 - y2_38 - y25_40 - y51_52 - y32_48 - y43_48 - y22_25 - y32_57 - y24_53 - y35_53 - y3_30 - y43_66 - y1_60 - y24_62 - y16_58 - y16_67 - y28_32 - y7_9 - y17_41 - y36_54 - y47_54 - y47_63 - y5_57 - y6_22 - y28_59 - y9_64 - y21_29 - y6_40 - y6_49 - y2_6 - y10_19 - y62_66 - y2_24 - y25_26 - y31_60 - y2_33 - y25_35 - y32_34 - y51_56 - y24_48 - y35_48 - y3_25 - y14_25 - y32_61 - y1_55 - y13_57 - y1_64 - y36_40 - y9_23 - y9_32 - y6_8 - y36_58 - y9_41 - y47_58 - y6_26 - y9_59 - y21_33 - y27_67 - y6_44 - y42_65 - y21_42 - y39_50 - y2_10 - y20_46 - y10_23 - y20_55 - y54_57 - y10_32 - y12_51 - y12_60 - y23_60 - y4_56 - y24_34 - y4_65 - y32_56 - y43_56 - y1_50 - y35_52 - y24_61 - y5_20 - y17_40 - y28_40 - y9_45 - y6_21 - y8_58 - y30_67 - y2_5 - y31_50 - y23_46 - y2_23 - y23_55 - y23_64 - y24_29 - y51_55 - y1_36 - y24_38 - y32_51 - y35_38 - y43_51 - y1_45 - y13_56 - y46_53 - y1_63 - y9_13 - y5_33 - y38_67 - y5_42 - y9_40 - y21_23 - y50_59 - y8_53 - y30_53 - y30_62 - y39_40 - y31_45 - y39_58 - y2_18 - y31_54 - y13_15 - y20_63 - y12_59 - y13_33 - y34_65 - y1_49 - y24_51 - y1_58 - y38_44 - y5_19 - y46_57 - y49_53 - y38_62 - y49_62 - y5_37 - y27_34 - y18_65 - y27_52 - y42_50 - y27_61 - y11_44 - y61_63 - y30_57 - y20_22 - y0_53 - y11_53 - y12_18 - y30_66 - y4_23 - y39_53 - y12_36 - y23_36 - y12_54 - y23_63 - y45_60 - y1_35 - y13_37 - y24_37 - y22_67 - y5_23 - y26_55 - y38_57 - y5_32 - y7_51 - y18_51 - y49_66 - y8_25 - y27_38 - y19_34 - y0_48 - y8_61 - y30_61 - y12_31 - y31_44 - y23_49 - y13_14 - y34_46 - y1_21 - y13_23 - y1_30 - y34_64 - y56_64 - y37_60 - y3_67 - y5_9 - y46_47 - y15_41 - y26_41 - y46_65 - y7_46 - y57_65 - y26_59 - y38_61 - y49_61 - y7_55 - y18_64 - y0_25 - y19_47 - y30_47 - y19_56 - y20_21 - y0_52 - y60_66 - y4_13 - y41_62 - y31_39 - y44_58 - y4_31 - y23_44 - y1_7 - y25_63 - y34_41 - y22_57 - y5_13 - y18_32 - y46_51 - y18_41 - y49_56 - y18_59 - y11_20 - y8_33 - y19_33 - y27_46 - y29_65 - y8_42 - y19_51 - y0_47 - y11_47 - y41_48 - y4_8 - y33_53 - y44_53 - y23_30 - y41_66 - y52_66 - y4_26 - y4_35 - y22_43 - y34_45 - y1_20 - y53_58 - y45_54 - y56_63 - y3_57 - y14_57 - y15_31 - y18_27 - y37_49 - y26_49 - y7_45 - y0_6 - y18_54 - y48_64 - y0_24 - y11_24 - y30_37 - y0_42 - y11_42 - y33_39 - y12_16 - y60_65 - y4_12 - y44_48 - y25_44 - y33_57 - y22_38 - y34_40 - y14_43 - y56_58 - y22_65 - y55_62 - y18_22 - y15_35 - y7_40 - y0_1 - y18_49 - y8_14 - y48_50 - y6_53 - y29_55 - y40_55 - y0_28 - y11_28 - y63_66 - y41_47 - y10_41 - y41_56 - y25_39 - y10_50 - y33_52 - y44_52 - y33_61 - y25_57 - y3_20 - y14_20 - y2_64 - y14_29 - y37_40 - y14_47 - y3_56
 Subject to
C1: x0+x1-y0_1 <=1 
C2: x0+x4 <=1 
C3: x0+x6-y0_6 <=1 
C4: x0+x7 <=1 
C5: x0+x8 <=1 
C6: x0+x12-y0_12 <=1 
C7: x0+x13 <=1 
C8: x0+x14-y0_14 <=1 
C9: x0+x16-y0_16 <=1 
C10: x0+x18-y0_18 <=1 
C11: x0+x20 <=1 
C12: x0+x23-y0_23 <=1 
C13: x0+x24-y0_24 <=1 
C14: x0+x25-y0_25 <=1 
C15: x0+x26-y0_26 <=1 
C16: x0+x28-y0_28 <=1 
C17: x0+x31 <=1 
C18: x0+x34 <=1 
C19: x0+x36 <=1 
C20: x0+x37 <=1 
C21: x0+x38 <=1 
C22: x0+x40-y0_40 <=1 
C23: x0+x42-y0_42 <=1 
C24: x0+x45 <=1 
C25: x0+x46 <=1 
C26: x0+x47-y0_47 <=1 
C27: x0+x48-y0_48 <=1 
C28: x0+x49 <=1 
C29: x0+x51 <=1 
C30: x0+x52-y0_52 <=1 
C31: x0+x53-y0_53 <=1 
C32: x0+x54-y0_54 <=1 
C33: x0+x56 <=1 
C34: x0+x57 <=1 
C35: x0+x58 <=1 
C36: x0+x59-y0_59 <=1 
C37: x0+x60-y0_60 <=1 
C38: x0+x64 <=1 
C39: x0+x65-y0_65 <=1 
C40: x1+x4 <=1 
C41: x1+x5 <=1 
C42: x1+x6 <=1 
C43: x1+x7-y1_7 <=1 
C44: x1+x8 <=1 
C45: x1+x10-y1_10 <=1 
C46: x1+x11 <=1 
C47: x1+x13 <=1 
C48: x1+x14 <=1 
C49: x1+x16 <=1 
C50: x1+x18 <=1 
C51: x1+x19-y1_19 <=1 
C52: x1+x20-y1_20 <=1 
C53: x1+x21-y1_21 <=1 
C54: x1+x22 <=1 
C55: x1+x23 <=1 
C56: x1+x24-y1_24 <=1 
C57: x1+x25 <=1 
C58: x1+x26 <=1 
C59: x1+x29-y1_29 <=1 
C60: x1+x30-y1_30 <=1 
C61: x1+x32-y1_32 <=1 
C62: x1+x33 <=1 
C63: x1+x35-y1_35 <=1 
C64: x1+x36-y1_36 <=1 
C65: x1+x37-y1_37 <=1 
C66: x1+x38 <=1 
C67: x1+x39 <=1 
C68: x1+x41 <=1 
C69: x1+x44 <=1 
C70: x1+x45-y1_45 <=1 
C71: x1+x46-y1_46 <=1 
C72: x1+x47-y1_47 <=1 
C73: x1+x48 <=1 
C74: x1+x49-y1_49 <=1 
C75: x1+x50-y1_50 <=1 
C76: x1+x53-y1_53 <=1 
C77: x1+x55-y1_55 <=1 
C78: x1+x56 <=1 
C79: x1+x58-y1_58 <=1 
C80: x1+x60-y1_60 <=1 
C81: x1+x61 <=1 
C82: x1+x62 <=1 
C83: x1+x63-y1_63 <=1 
C84: x1+x64-y1_64 <=1 
C85: x1+x66 <=1 
C86: x1+x67-y1_67 <=1 
C87: x2+x5-y2_5 <=1 
C88: x2+x6-y2_6 <=1 
C89: x2+x7-y2_7 <=1 
C90: x2+x9 <=1 
C91: x2+x10-y2_10 <=1 
C92: x2+x11-y2_11 <=1 
C93: x2+x12-y2_12 <=1 
C94: x2+x15 <=1 
C95: x2+x17-y2_17 <=1 
C96: x2+x18-y2_18 <=1 
C97: x2+x20-y2_20 <=1 
C98: x2+x21-y2_21 <=1 
C99: x2+x23-y2_23 <=1 
C100: x2+x24-y2_24 <=1 
C101: x2+x25-y2_25 <=1 
C102: x2+x30-y2_30 <=1 
C103: x2+x33-y2_33 <=1 
C104: x2+x34 <=1 
C105: x2+x35 <=1 
C106: x2+x38-y2_38 <=1 
C107: x2+x43-y2_43 <=1 
C108: x2+x46 <=1 
C109: x2+x47 <=1 
C110: x2+x48-y2_48 <=1 
C111: x2+x49 <=1 
C112: x2+x53-y2_53 <=1 
C113: x2+x55 <=1 
C114: x2+x56 <=1 
C115: x2+x57 <=1 
C116: x2+x58-y2_58 <=1 
C117: x2+x60 <=1 
C118: x2+x61 <=1 
C119: x2+x64-y2_64 <=1 
C120: x3+x4-y3_4 <=1 
C121: x3+x5-y3_5 <=1 
C122: x3+x7 <=1 
C123: x3+x8-y3_8 <=1 
C124: x3+x9-y3_9 <=1 
C125: x3+x10 <=1 
C126: x3+x11 <=1 
C127: x3+x12 <=1 
C128: x3+x15 <=1 
C129: x3+x16 <=1 
C130: x3+x19 <=1 
C131: x3+x20-y3_20 <=1 
C132: x3+x25-y3_25 <=1 
C133: x3+x28 <=1 
C134: x3+x29 <=1 
C135: x3+x30-y3_30 <=1 
C136: x3+x31 <=1 
C137: x3+x32-y3_32 <=1 
C138: x3+x33-y3_33 <=1 
C139: x3+x34 <=1 
C140: x3+x35-y3_35 <=1 
C141: x3+x37 <=1 
C142: x3+x41-y3_41 <=1 
C143: x3+x44 <=1 
C144: x3+x45 <=1 
C145: x3+x46-y3_46 <=1 
C146: x3+x47-y3_47 <=1 
C147: x3+x49 <=1 
C148: x3+x50 <=1 
C149: x3+x51-y3_51 <=1 
C150: x3+x53 <=1 
C151: x3+x55-y3_55 <=1 
C152: x3+x56-y3_56 <=1 
C153: x3+x57-y3_57 <=1 
C154: x3+x59-y3_59 <=1 
C155: x3+x60-y3_60 <=1 
C156: x3+x62 <=1 
C157: x3+x64-y3_64 <=1 
C158: x3+x66 <=1 
C159: x3+x67-y3_67 <=1 
C160: x4+x8-y4_8 <=1 
C161: x4+x9 <=1 
C162: x4+x10 <=1 
C163: x4+x11 <=1 
C164: x4+x12-y4_12 <=1 
C165: x4+x13-y4_13 <=1 
C166: x4+x15-y4_15 <=1 
C167: x4+x17 <=1 
C168: x4+x21 <=1 
C169: x4+x22 <=1 
C170: x4+x23-y4_23 <=1 
C171: x4+x26-y4_26 <=1 
C172: x4+x27 <=1 
C173: x4+x31-y4_31 <=1 
C174: x4+x32 <=1 
C175: x4+x35-y4_35 <=1 
C176: x4+x36 <=1 
C177: x4+x38 <=1 
C178: x4+x39 <=1 
C179: x4+x41 <=1 
C180: x4+x42 <=1 
C181: x4+x43 <=1 
C182: x4+x44 <=1 
C183: x4+x46 <=1 
C184: x4+x47-y4_47 <=1 
C185: x4+x49 <=1 
C186: x4+x50 <=1 
C187: x4+x53-y4_53 <=1 
C188: x4+x54 <=1 
C189: x4+x55 <=1 
C190: x4+x56-y4_56 <=1 
C191: x4+x57-y4_57 <=1 
C192: x4+x58 <=1 
C193: x4+x59 <=1 
C194: x4+x65-y4_65 <=1 
C195: x4+x66-y4_66 <=1 
C196: x5+x7 <=1 
C197: x5+x9-y5_9 <=1 
C198: x5+x13-y5_13 <=1 
C199: x5+x15 <=1 
C200: x5+x16-y5_16 <=1 
C201: x5+x19-y5_19 <=1 
C202: x5+x20-y5_20 <=1 
C203: x5+x22-y5_22 <=1 
C204: x5+x23-y5_23 <=1 
C205: x5+x25 <=1 
C206: x5+x29 <=1 
C207: x5+x32-y5_32 <=1 
C208: x5+x33-y5_33 <=1 
C209: x5+x35-y5_35 <=1 
C210: x5+x37-y5_37 <=1 
C211: x5+x38 <=1 
C212: x5+x40-y5_40 <=1 
C213: x5+x42-y5_42 <=1 
C214: x5+x43 <=1 
C215: x5+x44 <=1 
C216: x5+x45 <=1 
C217: x5+x49-y5_49 <=1 
C218: x5+x50 <=1 
C219: x5+x52 <=1 
C220: x5+x55-y5_55 <=1 
C221: x5+x57-y5_57 <=1 
C222: x5+x58-y5_58 <=1 
C223: x5+x60 <=1 
C224: x5+x61 <=1 
C225: x5+x62-y5_62 <=1 
C226: x5+x64 <=1 
C227: x6+x8-y6_8 <=1 
C228: x6+x9-y6_9 <=1 
C229: x6+x10 <=1 
C230: x6+x15 <=1 
C231: x6+x16 <=1 
C232: x6+x18-y6_18 <=1 
C233: x6+x19-y6_19 <=1 
C234: x6+x20 <=1 
C235: x6+x21-y6_21 <=1 
C236: x6+x22-y6_22 <=1 
C237: x6+x25 <=1 
C238: x6+x26-y6_26 <=1 
C239: x6+x27-y6_27 <=1 
C240: x6+x28-y6_28 <=1 
C241: x6+x30 <=1 
C242: x6+x31 <=1 
C243: x6+x32-y6_32 <=1 
C244: x6+x33 <=1 
C245: x6+x36 <=1 
C246: x6+x37-y6_37 <=1 
C247: x6+x40-y6_40 <=1 
C248: x6+x41-y6_41 <=1 
C249: x6+x42-y6_42 <=1 
C250: x6+x43 <=1 
C251: x6+x44-y6_44 <=1 
C252: x6+x45-y6_45 <=1 
C253: x6+x47-y6_47 <=1 
C254: x6+x48 <=1 
C255: x6+x49-y6_49 <=1 
C256: x6+x50 <=1 
C257: x6+x53-y6_53 <=1 
C258: x6+x55-y6_55 <=1 
C259: x6+x57 <=1 
C260: x6+x58 <=1 
C261: x6+x60-y6_60 <=1 
C262: x6+x61 <=1 
C263: x6+x66-y6_66 <=1 
C264: x7+x9-y7_9 <=1 
C265: x7+x11-y7_11 <=1 
C266: x7+x16-y7_16 <=1 
C267: x7+x17-y7_17 <=1 
C268: x7+x18 <=1 
C269: x7+x20 <=1 
C270: x7+x21 <=1 
C271: x7+x23 <=1 
C272: x7+x25-y7_25 <=1 
C273: x7+x28 <=1 
C274: x7+x29 <=1 
C275: x7+x31 <=1 
C276: x7+x33 <=1 
C277: x7+x34-y7_34 <=1 
C278: x7+x35 <=1 
C279: x7+x37 <=1 
C280: x7+x38 <=1 
C281: x7+x39-y7_39 <=1 
C282: x7+x40-y7_40 <=1 
C283: x7+x41 <=1 
C284: x7+x44-y7_44 <=1 
C285: x7+x45-y7_45 <=1 
C286: x7+x46-y7_46 <=1 
C287: x7+x47 <=1 
C288: x7+x48-y7_48 <=1 
C289: x7+x51-y7_51 <=1 
C290: x7+x52 <=1 
C291: x7+x55-y7_55 <=1 
C292: x7+x56 <=1 
C293: x7+x57-y7_57 <=1 
C294: x7+x58 <=1 
C295: x7+x60 <=1 
C296: x7+x63-y7_63 <=1 
C297: x7+x66 <=1 
C298: x8+x13-y8_13 <=1 
C299: x8+x14-y8_14 <=1 
C300: x8+x19 <=1 
C301: x8+x21 <=1 
C302: x8+x22 <=1 
C303: x8+x25-y8_25 <=1 
C304: x8+x26-y8_26 <=1 
C305: x8+x33-y8_33 <=1 
C306: x8+x35-y8_35 <=1 
C307: x8+x39 <=1 
C308: x8+x40-y8_40 <=1 
C309: x8+x41 <=1 
C310: x8+x42-y8_42 <=1 
C311: x8+x44-y8_44 <=1 
C312: x8+x45-y8_45 <=1 
C313: x8+x46-y8_46 <=1 
C314: x8+x47 <=1 
C315: x8+x50 <=1 
C316: x8+x51-y8_51 <=1 
C317: x8+x52 <=1 
C318: x8+x53-y8_53 <=1 
C319: x8+x54-y8_54 <=1 
C320: x8+x57 <=1 
C321: x8+x58-y8_58 <=1 
C322: x8+x60-y8_60 <=1 
C323: x8+x61-y8_61 <=1 
C324: x8+x64 <=1 
C325: x8+x65 <=1 
C326: x8+x66 <=1 
C327: x9+x13-y9_13 <=1 
C328: x9+x14-y9_14 <=1 
C329: x9+x15 <=1 
C330: x9+x18 <=1 
C331: x9+x19 <=1 
C332: x9+x22 <=1 
C333: x9+x23-y9_23 <=1 
C334: x9+x26 <=1 
C335: x9+x27 <=1 
C336: x9+x29-y9_29 <=1 
C337: x9+x32-y9_32 <=1 
C338: x9+x34-y9_34 <=1 
C339: x9+x35 <=1 
C340: x9+x36 <=1 
C341: x9+x38-y9_38 <=1 
C342: x9+x40-y9_40 <=1 
C343: x9+x41-y9_41 <=1 
C344: x9+x42-y9_42 <=1 
C345: x9+x45-y9_45 <=1 
C346: x9+x50 <=1 
C347: x9+x51-y9_51 <=1 
C348: x9+x53 <=1 
C349: x9+x57-y9_57 <=1 
C350: x9+x59-y9_59 <=1 
C351: x9+x60-y9_60 <=1 
C352: x9+x62 <=1 
C353: x9+x64-y9_64 <=1 
C354: x9+x65-y9_65 <=1 
C355: x9+x67-y9_67 <=1 
C356: x10+x11 <=1 
C357: x10+x13 <=1 
C358: x10+x15 <=1 
C359: x10+x17 <=1 
C360: x10+x19-y10_19 <=1 
C361: x10+x20 <=1 
C362: x10+x23-y10_23 <=1 
C363: x10+x24 <=1 
C364: x10+x27 <=1 
C365: x10+x28 <=1 
C366: x10+x29 <=1 
C367: x10+x30-y10_30 <=1 
C368: x10+x32-y10_32 <=1 
C369: x10+x33 <=1 
C370: x10+x34 <=1 
C371: x10+x36 <=1 
C372: x10+x37 <=1 
C373: x10+x38 <=1 
C374: x10+x39-y10_39 <=1 
C375: x10+x40 <=1 
C376: x10+x41-y10_41 <=1 
C377: x10+x42-y10_42 <=1 
C378: x10+x43 <=1 
C379: x10+x44-y10_44 <=1 
C380: x10+x45-y10_45 <=1 
C381: x10+x47-y10_47 <=1 
C382: x10+x48-y10_48 <=1 
C383: x10+x49-y10_49 <=1 
C384: x10+x50-y10_50 <=1 
C385: x10+x52 <=1 
C386: x10+x53-y10_53 <=1 
C387: x10+x58-y10_58 <=1 
C388: x10+x59 <=1 
C389: x10+x60 <=1 
C390: x10+x61 <=1 
C391: x10+x62 <=1 
C392: x10+x63 <=1 
C393: x10+x64 <=1 
C394: x11+x12 <=1 
C395: x11+x13 <=1 
C396: x11+x14 <=1 
C397: x11+x15 <=1 
C398: x11+x17-y11_17 <=1 
C399: x11+x19 <=1 
C400: x11+x20-y11_20 <=1 
C401: x11+x21-y11_21 <=1 
C402: x11+x22-y11_22 <=1 
C403: x11+x24-y11_24 <=1 
C404: x11+x27-y11_27 <=1 
C405: x11+x28-y11_28 <=1 
C406: x11+x29 <=1 
C407: x11+x33 <=1 
C408: x11+x34 <=1 
C409: x11+x35-y11_35 <=1 
C410: x11+x38 <=1 
C411: x11+x41-y11_41 <=1 
C412: x11+x42-y11_42 <=1 
C413: x11+x44-y11_44 <=1 
C414: x11+x45-y11_45 <=1 
C415: x11+x46 <=1 
C416: x11+x47-y11_47 <=1 
C417: x11+x48 <=1 
C418: x11+x49-y11_49 <=1 
C419: x11+x51 <=1 
C420: x11+x52 <=1 
C421: x11+x53-y11_53 <=1 
C422: x11+x54-y11_54 <=1 
C423: x11+x56-y11_56 <=1 
C424: x11+x58 <=1 
C425: x11+x59 <=1 
C426: x11+x60-y11_60 <=1 
C427: x11+x62 <=1 
C428: x11+x63 <=1 
C429: x11+x65-y11_65 <=1 
C430: x12+x13 <=1 
C431: x12+x16-y12_16 <=1 
C432: x12+x17 <=1 
C433: x12+x18-y12_18 <=1 
C434: x12+x19-y12_19 <=1 
C435: x12+x20-y12_20 <=1 
C436: x12+x21 <=1 
C437: x12+x22 <=1 
C438: x12+x23 <=1 
C439: x12+x24 <=1 
C440: x12+x28 <=1 
C441: x12+x31-y12_31 <=1 
C442: x12+x32 <=1 
C443: x12+x33 <=1 
C444: x12+x35 <=1 
C445: x12+x36-y12_36 <=1 
C446: x12+x40 <=1 
C447: x12+x42 <=1 
C448: x12+x44-y12_44 <=1 
C449: x12+x47 <=1 
C450: x12+x48 <=1 
C451: x12+x49 <=1 
C452: x12+x50 <=1 
C453: x12+x51-y12_51 <=1 
C454: x12+x52-y12_52 <=1 
C455: x12+x53 <=1 
C456: x12+x54-y12_54 <=1 
C457: x12+x56-y12_56 <=1 
C458: x12+x59-y12_59 <=1 
C459: x12+x60-y12_60 <=1 
C460: x12+x61 <=1 
C461: x12+x62-y12_62 <=1 
C462: x12+x63-y12_63 <=1 
C463: x12+x64 <=1 
C464: x12+x66-y12_66 <=1 
C465: x12+x67 <=1 
C466: x13+x14-y13_14 <=1 
C467: x13+x15-y13_15 <=1 
C468: x13+x16-y13_16 <=1 
C469: x13+x21-y13_21 <=1 
C470: x13+x22-y13_22 <=1 
C471: x13+x23-y13_23 <=1 
C472: x13+x25 <=1 
C473: x13+x28 <=1 
C474: x13+x29 <=1 
C475: x13+x30-y13_30 <=1 
C476: x13+x31-y13_31 <=1 
C477: x13+x33-y13_33 <=1 
C478: x13+x34 <=1 
C479: x13+x37-y13_37 <=1 
C480: x13+x38 <=1 
C481: x13+x39 <=1 
C482: x13+x40-y13_40 <=1 
C483: x13+x41-y13_41 <=1 
C484: x13+x45 <=1 
C485: x13+x46 <=1 
C486: x13+x47 <=1 
C487: x13+x50-y13_50 <=1 
C488: x13+x51-y13_51 <=1 
C489: x13+x53 <=1 
C490: x13+x55 <=1 
C491: x13+x56-y13_56 <=1 
C492: x13+x57-y13_57 <=1 
C493: x13+x59 <=1 
C494: x13+x61 <=1 
C495: x13+x63-y13_63 <=1 
C496: x14+x15-y14_15 <=1 
C497: x14+x17 <=1 
C498: x14+x18-y14_18 <=1 
C499: x14+x19-y14_19 <=1 
C500: x14+x20-y14_20 <=1 
C501: x14+x21 <=1 
C502: x14+x23-y14_23 <=1 
C503: x14+x24-y14_24 <=1 
C504: x14+x25-y14_25 <=1 
C505: x14+x26 <=1 
C506: x14+x29-y14_29 <=1 
C507: x14+x32 <=1 
C508: x14+x33 <=1 
C509: x14+x34 <=1 
C510: x14+x35 <=1 
C511: x14+x36 <=1 
C512: x14+x38 <=1 
C513: x14+x39 <=1 
C514: x14+x41 <=1 
C515: x14+x42-y14_42 <=1 
C516: x14+x43-y14_43 <=1 
C517: x14+x44-y14_44 <=1 
C518: x14+x46-y14_46 <=1 
C519: x14+x47-y14_47 <=1 
C520: x14+x48 <=1 
C521: x14+x51 <=1 
C522: x14+x52 <=1 
C523: x14+x53 <=1 
C524: x14+x54 <=1 
C525: x14+x57-y14_57 <=1 
C526: x14+x59-y14_59 <=1 
C527: x14+x60-y14_60 <=1 
C528: x14+x62 <=1 
C529: x14+x63 <=1 
C530: x14+x64-y14_64 <=1 
C531: x15+x16-y15_16 <=1 
C532: x15+x18 <=1 
C533: x15+x21-y15_21 <=1 
C534: x15+x25 <=1 
C535: x15+x28-y15_28 <=1 
C536: x15+x30 <=1 
C537: x15+x31-y15_31 <=1 
C538: x15+x33-y15_33 <=1 
C539: x15+x34 <=1 
C540: x15+x35-y15_35 <=1 
C541: x15+x36 <=1 
C542: x15+x37 <=1 
C543: x15+x38 <=1 
C544: x15+x41-y15_41 <=1 
C545: x15+x43 <=1 
C546: x15+x46 <=1 
C547: x15+x47-y15_47 <=1 
C548: x15+x51-y15_51 <=1 
C549: x15+x53-y15_53 <=1 
C550: x15+x55 <=1 
C551: x15+x56 <=1 
C552: x15+x59 <=1 
C553: x15+x61 <=1 
C554: x15+x63 <=1 
C555: x15+x64 <=1 
C556: x15+x66 <=1 
C557: x16+x18 <=1 
C558: x16+x22-y16_22 <=1 
C559: x16+x23 <=1 
C560: x16+x27 <=1 
C561: x16+x29 <=1 
C562: x16+x30 <=1 
C563: x16+x31 <=1 
C564: x16+x32-y16_32 <=1 
C565: x16+x33 <=1 
C566: x16+x34 <=1 
C567: x16+x35 <=1 
C568: x16+x37-y16_37 <=1 
C569: x16+x40 <=1 
C570: x16+x42 <=1 
C571: x16+x44 <=1 
C572: x16+x46-y16_46 <=1 
C573: x16+x47 <=1 
C574: x16+x50 <=1 
C575: x16+x51 <=1 
C576: x16+x52 <=1 
C577: x16+x53 <=1 
C578: x16+x58-y16_58 <=1 
C579: x16+x60 <=1 
C580: x16+x63-y16_63 <=1 
C581: x16+x65-y16_65 <=1 
C582: x16+x67-y16_67 <=1 
C583: x17+x18 <=1 
C584: x17+x20-y17_20 <=1 
C585: x17+x23 <=1 
C586: x17+x24-y17_24 <=1 
C587: x17+x25 <=1 
C588: x17+x30 <=1 
C589: x17+x34 <=1 
C590: x17+x35 <=1 
C591: x17+x36 <=1 
C592: x17+x37-y17_37 <=1 
C593: x17+x40-y17_40 <=1 
C594: x17+x41-y17_41 <=1 
C595: x17+x43 <=1 
C596: x17+x45 <=1 
C597: x17+x46 <=1 
C598: x17+x47 <=1 
C599: x17+x49 <=1 
C600: x17+x50 <=1 
C601: x17+x51 <=1 
C602: x17+x52-y17_52 <=1 
C603: x17+x55-y17_55 <=1 
C604: x17+x56-y17_56 <=1 
C605: x17+x57 <=1 
C606: x17+x58 <=1 
C607: x17+x59 <=1 
C608: x17+x60 <=1 
C609: x17+x61-y17_61 <=1 
C610: x17+x63 <=1 
C611: x17+x65 <=1 
C612: x17+x66 <=1 
C613: x17+x67 <=1 
C614: x18+x21-y18_21 <=1 
C615: x18+x22-y18_22 <=1 
C616: x18+x24-y18_24 <=1 
C617: x18+x27-y18_27 <=1 
C618: x18+x32-y18_32 <=1 
C619: x18+x33 <=1 
C620: x18+x35 <=1 
C621: x18+x37 <=1 
C622: x18+x39-y18_39 <=1 
C623: x18+x40 <=1 
C624: x18+x41-y18_41 <=1 
C625: x18+x42 <=1 
C626: x18+x43 <=1 
C627: x18+x45 <=1 
C628: x18+x48 <=1 
C629: x18+x49-y18_49 <=1 
C630: x18+x50 <=1 
C631: x18+x51-y18_51 <=1 
C632: x18+x52-y18_52 <=1 
C633: x18+x53 <=1 
C634: x18+x54-y18_54 <=1 
C635: x18+x55 <=1 
C636: x18+x56 <=1 
C637: x18+x58-y18_58 <=1 
C638: x18+x59-y18_59 <=1 
C639: x18+x61-y18_61 <=1 
C640: x18+x63 <=1 
C641: x18+x64-y18_64 <=1 
C642: x18+x65-y18_65 <=1 
C643: x18+x67-y18_67 <=1 
C644: x19+x20 <=1 
C645: x19+x21 <=1 
C646: x19+x25-y19_25 <=1 
C647: x19+x26-y19_26 <=1 
C648: x19+x28 <=1 
C649: x19+x29 <=1 
C650: x19+x33-y19_33 <=1 
C651: x19+x34-y19_34 <=1 
C652: x19+x35-y19_35 <=1 
C653: x19+x36-y19_36 <=1 
C654: x19+x37 <=1 
C655: x19+x38 <=1 
C656: x19+x40-y19_40 <=1 
C657: x19+x41-y19_41 <=1 
C658: x19+x45-y19_45 <=1 
C659: x19+x46 <=1 
C660: x19+x47-y19_47 <=1 
C661: x19+x50-y19_50 <=1 
C662: x19+x51-y19_51 <=1 
C663: x19+x52 <=1 
C664: x19+x53 <=1 
C665: x19+x54-y19_54 <=1 
C666: x19+x55-y19_55 <=1 
C667: x19+x56-y19_56 <=1 
C668: x19+x57 <=1 
C669: x19+x58 <=1 
C670: x19+x59-y19_59 <=1 
C671: x19+x60 <=1 
C672: x19+x62 <=1 
C673: x19+x66 <=1 
C674: x20+x21-y20_21 <=1 
C675: x20+x22-y20_22 <=1 
C676: x20+x23-y20_23 <=1 
C677: x20+x26 <=1 
C678: x20+x28-y20_28 <=1 
C679: x20+x29-y20_29 <=1 
C680: x20+x30 <=1 
C681: x20+x31 <=1 
C682: x20+x35 <=1 
C683: x20+x39-y20_39 <=1 
C684: x20+x42-y20_42 <=1 
C685: x20+x43-y20_43 <=1 
C686: x20+x46-y20_46 <=1 
C687: x20+x47-y20_47 <=1 
C688: x20+x48 <=1 
C689: x20+x50 <=1 
C690: x20+x51-y20_51 <=1 
C691: x20+x53 <=1 
C692: x20+x54 <=1 
C693: x20+x55-y20_55 <=1 
C694: x20+x59 <=1 
C695: x20+x60 <=1 
C696: x20+x62-y20_62 <=1 
C697: x20+x63-y20_63 <=1 
C698: x20+x64 <=1 
C699: x21+x23-y21_23 <=1 
C700: x21+x29-y21_29 <=1 
C701: x21+x30-y21_30 <=1 
C702: x21+x32 <=1 
C703: x21+x33-y21_33 <=1 
C704: x21+x36 <=1 
C705: x21+x37-y21_37 <=1 
C706: x21+x42-y21_42 <=1 
C707: x21+x44-y21_44 <=1 
C708: x21+x45-y21_45 <=1 
C709: x21+x46-y21_46 <=1 
C710: x21+x48-y21_48 <=1 
C711: x21+x49 <=1 
C712: x21+x57-y21_57 <=1 
C713: x21+x58-y21_58 <=1 
C714: x21+x59-y21_59 <=1 
C715: x21+x60 <=1 
C716: x21+x61-y21_61 <=1 
C717: x21+x62-y21_62 <=1 
C718: x21+x63-y21_63 <=1 
C719: x21+x64 <=1 
C720: x21+x66 <=1 
C721: x21+x67-y21_67 <=1 
C722: x22+x23-y22_23 <=1 
C723: x22+x25-y22_25 <=1 
C724: x22+x27-y22_27 <=1 
C725: x22+x30 <=1 
C726: x22+x31 <=1 
C727: x22+x33 <=1 
C728: x22+x34 <=1 
C729: x22+x35 <=1 
C730: x22+x36 <=1 
C731: x22+x37 <=1 
C732: x22+x38-y22_38 <=1 
C733: x22+x39 <=1 
C734: x22+x42 <=1 
C735: x22+x43-y22_43 <=1 
C736: x22+x46 <=1 
C737: x22+x50 <=1 
C738: x22+x51 <=1 
C739: x22+x52 <=1 
C740: x22+x53-y22_53 <=1 
C741: x22+x54-y22_54 <=1 
C742: x22+x55-y22_55 <=1 
C743: x22+x57-y22_57 <=1 
C744: x22+x59 <=1 
C745: x22+x61 <=1 
C746: x22+x63 <=1 
C747: x22+x64 <=1 
C748: x22+x65-y22_65 <=1 
C749: x22+x66 <=1 
C750: x22+x67-y22_67 <=1 
C751: x23+x29-y23_29 <=1 
C752: x23+x30-y23_30 <=1 
C753: x23+x31 <=1 
C754: x23+x34-y23_34 <=1 
C755: x23+x36-y23_36 <=1 
C756: x23+x38 <=1 
C757: x23+x39-y23_39 <=1 
C758: x23+x40 <=1 
C759: x23+x41 <=1 
C760: x23+x42 <=1 
C761: x23+x44-y23_44 <=1 
C762: x23+x46-y23_46 <=1 
C763: x23+x47-y23_47 <=1 
C764: x23+x48-y23_48 <=1 
C765: x23+x49-y23_49 <=1 
C766: x23+x53 <=1 
C767: x23+x55-y23_55 <=1 
C768: x23+x58-y23_58 <=1 
C769: x23+x59 <=1 
C770: x23+x60-y23_60 <=1 
C771: x23+x62-y23_62 <=1 
C772: x23+x63-y23_63 <=1 
C773: x23+x64-y23_64 <=1 
C774: x23+x67-y23_67 <=1 
C775: x24+x28 <=1 
C776: x24+x29-y24_29 <=1 
C777: x24+x33 <=1 
C778: x24+x34-y24_34 <=1 
C779: x24+x35 <=1 
C780: x24+x37-y24_37 <=1 
C781: x24+x38-y24_38 <=1 
C782: x24+x39 <=1 
C783: x24+x41 <=1 
C784: x24+x44 <=1 
C785: x24+x48-y24_48 <=1 
C786: x24+x49-y24_49 <=1 
C787: x24+x50 <=1 
C788: x24+x51-y24_51 <=1 
C789: x24+x52 <=1 
C790: x24+x53-y24_53 <=1 
C791: x24+x55 <=1 
C792: x24+x61-y24_61 <=1 
C793: x24+x62-y24_62 <=1 
C794: x24+x63 <=1 
C795: x24+x65 <=1 
C796: x24+x66 <=1 
C797: x24+x67 <=1 
C798: x25+x26-y25_26 <=1 
C799: x25+x27-y25_27 <=1 
C800: x25+x29-y25_29 <=1 
C801: x25+x30 <=1 
C802: x25+x32 <=1 
C803: x25+x33 <=1 
C804: x25+x34-y25_34 <=1 
C805: x25+x35-y25_35 <=1 
C806: x25+x36 <=1 
C807: x25+x38-y25_38 <=1 
C808: x25+x39-y25_39 <=1 
C809: x25+x40-y25_40 <=1 
C810: x25+x41-y25_41 <=1 
C811: x25+x42-y25_42 <=1 
C812: x25+x43-y25_43 <=1 
C813: x25+x44-y25_44 <=1 
C814: x25+x46-y25_46 <=1 
C815: x25+x47 <=1 
C816: x25+x48 <=1 
C817: x25+x49 <=1 
C818: x25+x50 <=1 
C819: x25+x52-y25_52 <=1 
C820: x25+x54-y25_54 <=1 
C821: x25+x55 <=1 
C822: x25+x56 <=1 
C823: x25+x57-y25_57 <=1 
C824: x25+x59 <=1 
C825: x25+x62 <=1 
C826: x25+x63-y25_63 <=1 
C827: x25+x65-y25_65 <=1 
C828: x25+x66 <=1 
C829: x26+x27 <=1 
C830: x26+x29-y26_29 <=1 
C831: x26+x32-y26_32 <=1 
C832: x26+x33 <=1 
C833: x26+x34 <=1 
C834: x26+x36 <=1 
C835: x26+x37-y26_37 <=1 
C836: x26+x38 <=1 
C837: x26+x39-y26_39 <=1 
C838: x26+x40 <=1 
C839: x26+x41-y26_41 <=1 
C840: x26+x45 <=1 
C841: x26+x48 <=1 
C842: x26+x49-y26_49 <=1 
C843: x26+x50 <=1 
C844: x26+x51-y26_51 <=1 
C845: x26+x53-y26_53 <=1 
C846: x26+x54 <=1 
C847: x26+x55-y26_55 <=1 
C848: x26+x57 <=1 
C849: x26+x58 <=1 
C850: x26+x59-y26_59 <=1 
C851: x26+x61-y26_61 <=1 
C852: x26+x62 <=1 
C853: x26+x63 <=1 
C854: x26+x64 <=1 
C855: x26+x65-y26_65 <=1 
C856: x26+x67 <=1 
C857: x27+x29 <=1 
C858: x27+x31 <=1 
C859: x27+x34-y27_34 <=1 
C860: x27+x36-y27_36 <=1 
C861: x27+x37 <=1 
C862: x27+x38-y27_38 <=1 
C863: x27+x39 <=1 
C864: x27+x40-y27_40 <=1 
C865: x27+x41 <=1 
C866: x27+x45-y27_45 <=1 
C867: x27+x46-y27_46 <=1 
C868: x27+x48 <=1 
C869: x27+x49-y27_49 <=1 
C870: x27+x52-y27_52 <=1 
C871: x27+x53 <=1 
C872: x27+x56 <=1 
C873: x27+x58-y27_58 <=1 
C874: x27+x60 <=1 
C875: x27+x61-y27_61 <=1 
C876: x27+x62 <=1 
C877: x27+x64 <=1 
C878: x27+x67-y27_67 <=1 
C879: x28+x32-y28_32 <=1 
C880: x28+x33-y28_33 <=1 
C881: x28+x35 <=1 
C882: x28+x40-y28_40 <=1 
C883: x28+x46 <=1 
C884: x28+x47-y28_47 <=1 
C885: x28+x48 <=1 
C886: x28+x50 <=1 
C887: x28+x51-y28_51 <=1 
C888: x28+x55 <=1 
C889: x28+x56-y28_56 <=1 
C890: x28+x57 <=1 
C891: x28+x58-y28_58 <=1 
C892: x28+x59-y28_59 <=1 
C893: x28+x60-y28_60 <=1 
C894: x28+x61 <=1 
C895: x28+x62 <=1 
C896: x28+x63 <=1 
C897: x28+x64-y28_64 <=1 
C898: x28+x66 <=1 
C899: x28+x67 <=1 
C900: x29+x30 <=1 
C901: x29+x31 <=1 
C902: x29+x34 <=1 
C903: x29+x36-y29_36 <=1 
C904: x29+x38-y29_38 <=1 
C905: x29+x40-y29_40 <=1 
C906: x29+x41-y29_41 <=1 
C907: x29+x44-y29_44 <=1 
C908: x29+x45 <=1 
C909: x29+x46 <=1 
C910: x29+x52 <=1 
C911: x29+x53 <=1 
C912: x29+x54 <=1 
C913: x29+x55-y29_55 <=1 
C914: x29+x57 <=1 
C915: x29+x58-y29_58 <=1 
C916: x29+x59 <=1 
C917: x29+x62-y29_62 <=1 
C918: x29+x63-y29_63 <=1 
C919: x29+x64 <=1 
C920: x29+x65-y29_65 <=1 
C921: x30+x35 <=1 
C922: x30+x36-y30_36 <=1 
C923: x30+x37-y30_37 <=1 
C924: x30+x39 <=1 
C925: x30+x40-y30_40 <=1 
C926: x30+x41-y30_41 <=1 
C927: x30+x44 <=1 
C928: x30+x45 <=1 
C929: x30+x47-y30_47 <=1 
C930: x30+x49-y30_49 <=1 
C931: x30+x50 <=1 
C932: x30+x51 <=1 
C933: x30+x53-y30_53 <=1 
C934: x30+x54 <=1 
C935: x30+x55 <=1 
C936: x30+x56 <=1 
C937: x30+x57-y30_57 <=1 
C938: x30+x59 <=1 
C939: x30+x60 <=1 
C940: x30+x61-y30_61 <=1 
C941: x30+x62-y30_62 <=1 
C942: x30+x63-y30_63 <=1 
C943: x30+x66-y30_66 <=1 
C944: x30+x67-y30_67 <=1 
C945: x31+x32-y31_32 <=1 
C946: x31+x34-y31_34 <=1 
C947: x31+x37-y31_37 <=1 
C948: x31+x39-y31_39 <=1 
C949: x31+x41 <=1 
C950: x31+x43 <=1 
C951: x31+x44-y31_44 <=1 
C952: x31+x45-y31_45 <=1 
C953: x31+x46 <=1 
C954: x31+x47-y31_47 <=1 
C955: x31+x48 <=1 
C956: x31+x50-y31_50 <=1 
C957: x31+x51 <=1 
C958: x31+x52 <=1 
C959: x31+x53 <=1 
C960: x31+x54-y31_54 <=1 
C961: x31+x55 <=1 
C962: x31+x56-y31_56 <=1 
C963: x31+x57 <=1 
C964: x31+x59 <=1 
C965: x31+x60-y31_60 <=1 
C966: x31+x62-y31_62 <=1 
C967: x31+x64 <=1 
C968: x31+x65-y31_65 <=1 
C969: x31+x66 <=1 
C970: x31+x67 <=1 
C971: x32+x34-y32_34 <=1 
C972: x32+x35 <=1 
C973: x32+x36-y32_36 <=1 
C974: x32+x38 <=1 
C975: x32+x39 <=1 
C976: x32+x41 <=1 
C977: x32+x44 <=1 
C978: x32+x45-y32_45 <=1 
C979: x32+x46 <=1 
C980: x32+x47 <=1 
C981: x32+x48-y32_48 <=1 
C982: x32+x50 <=1 
C983: x32+x51-y32_51 <=1 
C984: x32+x52 <=1 
C985: x32+x55 <=1 
C986: x32+x56-y32_56 <=1 
C987: x32+x57-y32_57 <=1 
C988: x32+x61-y32_61 <=1 
C989: x32+x62-y32_62 <=1 
C990: x32+x63 <=1 
C991: x32+x67-y32_67 <=1 
C992: x33+x35 <=1 
C993: x33+x36-y33_36 <=1 
C994: x33+x37 <=1 
C995: x33+x38-y33_38 <=1 
C996: x33+x39-y33_39 <=1 
C997: x33+x40-y33_40 <=1 
C998: x33+x41 <=1 
C999: x33+x42-y33_42 <=1 
C1000: x33+x43 <=1 
C1001: x33+x46 <=1 
C1002: x33+x47 <=1 
C1003: x33+x49 <=1 
C1004: x33+x50 <=1 
C1005: x33+x52-y33_52 <=1 
C1006: x33+x53-y33_53 <=1 
C1007: x33+x54 <=1 
C1008: x33+x55-y33_55 <=1 
C1009: x33+x57-y33_57 <=1 
C1010: x33+x60 <=1 
C1011: x33+x61-y33_61 <=1 
C1012: x33+x64-y33_64 <=1 
C1013: x33+x65 <=1 
C1014: x33+x67 <=1 
C1015: x34+x37-y34_37 <=1 
C1016: x34+x38 <=1 
C1017: x34+x39 <=1 
C1018: x34+x40-y34_40 <=1 
C1019: x34+x41-y34_41 <=1 
C1020: x34+x42 <=1 
C1021: x34+x45-y34_45 <=1 
C1022: x34+x46-y34_46 <=1 
C1023: x34+x48-y34_48 <=1 
C1024: x34+x50 <=1 
C1025: x34+x53 <=1 
C1026: x34+x54 <=1 
C1027: x34+x55 <=1 
C1028: x34+x56-y34_56 <=1 
C1029: x34+x58 <=1 
C1030: x34+x60 <=1 
C1031: x34+x61-y34_61 <=1 
C1032: x34+x64-y34_64 <=1 
C1033: x34+x65-y34_65 <=1 
C1034: x34+x67 <=1 
C1035: x35+x37 <=1 
C1036: x35+x38-y35_38 <=1 
C1037: x35+x39 <=1 
C1038: x35+x42 <=1 
C1039: x35+x45 <=1 
C1040: x35+x48-y35_48 <=1 
C1041: x35+x50 <=1 
C1042: x35+x52-y35_52 <=1 
C1043: x35+x53-y35_53 <=1 
C1044: x35+x54-y35_54 <=1 
C1045: x35+x55 <=1 
C1046: x35+x56 <=1 
C1047: x35+x60 <=1 
C1048: x35+x63-y35_63 <=1 
C1049: x35+x65-y35_65 <=1 
C1050: x36+x37 <=1 
C1051: x36+x40-y36_40 <=1 
C1052: x36+x42-y36_42 <=1 
C1053: x36+x44 <=1 
C1054: x36+x45 <=1 
C1055: x36+x46 <=1 
C1056: x36+x47 <=1 
C1057: x36+x48-y36_48 <=1 
C1058: x36+x49 <=1 
C1059: x36+x50-y36_50 <=1 
C1060: x36+x51-y36_51 <=1 
C1061: x36+x54-y36_54 <=1 
C1062: x36+x58-y36_58 <=1 
C1063: x36+x59-y36_59 <=1 
C1064: x36+x66-y36_66 <=1 
C1065: x36+x67 <=1 
C1066: x37+x38-y37_38 <=1 
C1067: x37+x39-y37_39 <=1 
C1068: x37+x40-y37_40 <=1 
C1069: x37+x41 <=1 
C1070: x37+x44-y37_44 <=1 
C1071: x37+x45 <=1 
C1072: x37+x48-y37_48 <=1 
C1073: x37+x49-y37_49 <=1 
C1074: x37+x50 <=1 
C1075: x37+x51 <=1 
C1076: x37+x55 <=1 
C1077: x37+x57-y37_57 <=1 
C1078: x37+x59 <=1 
C1079: x37+x60-y37_60 <=1 
C1080: x37+x61-y37_61 <=1 
C1081: x37+x63 <=1 
C1082: x38+x39 <=1 
C1083: x38+x42 <=1 
C1084: x38+x44-y38_44 <=1 
C1085: x38+x45-y38_45 <=1 
C1086: x38+x46 <=1 
C1087: x38+x47 <=1 
C1088: x38+x48 <=1 
C1089: x38+x51 <=1 
C1090: x38+x52 <=1 
C1091: x38+x53 <=1 
C1092: x38+x54-y38_54 <=1 
C1093: x38+x57-y38_57 <=1 
C1094: x38+x58 <=1 
C1095: x38+x60 <=1 
C1096: x38+x61-y38_61 <=1 
C1097: x38+x62-y38_62 <=1 
C1098: x38+x64 <=1 
C1099: x38+x66 <=1 
C1100: x38+x67-y38_67 <=1 
C1101: x39+x40-y39_40 <=1 
C1102: x39+x41 <=1 
C1103: x39+x42-y39_42 <=1 
C1104: x39+x43 <=1 
C1105: x39+x45 <=1 
C1106: x39+x47 <=1 
C1107: x39+x48 <=1 
C1108: x39+x49 <=1 
C1109: x39+x50-y39_50 <=1 
C1110: x39+x51-y39_51 <=1 
C1111: x39+x53-y39_53 <=1 
C1112: x39+x55 <=1 
C1113: x39+x56-y39_56 <=1 
C1114: x39+x57-y39_57 <=1 
C1115: x39+x58-y39_58 <=1 
C1116: x39+x59 <=1 
C1117: x39+x60-y39_60 <=1 
C1118: x39+x62 <=1 
C1119: x39+x65 <=1 
C1120: x40+x41 <=1 
C1121: x40+x42 <=1 
C1122: x40+x43-y40_43 <=1 
C1123: x40+x47 <=1 
C1124: x40+x48-y40_48 <=1 
C1125: x40+x50 <=1 
C1126: x40+x51 <=1 
C1127: x40+x55-y40_55 <=1 
C1128: x40+x57-y40_57 <=1 
C1129: x40+x59 <=1 
C1130: x40+x65 <=1 
C1131: x40+x66 <=1 
C1132: x40+x67 <=1 
C1133: x41+x42-y41_42 <=1 
C1134: x41+x45-y41_45 <=1 
C1135: x41+x47-y41_47 <=1 
C1136: x41+x48-y41_48 <=1 
C1137: x41+x50 <=1 
C1138: x41+x54-y41_54 <=1 
C1139: x41+x56-y41_56 <=1 
C1140: x41+x58-y41_58 <=1 
C1141: x41+x62-y41_62 <=1 
C1142: x41+x63 <=1 
C1143: x41+x66-y41_66 <=1 
C1144: x42+x45 <=1 
C1145: x42+x46 <=1 
C1146: x42+x47-y42_47 <=1 
C1147: x42+x48-y42_48 <=1 
C1148: x42+x50-y42_50 <=1 
C1149: x42+x52-y42_52 <=1 
C1150: x42+x53 <=1 
C1151: x42+x58 <=1 
C1152: x42+x61-y42_61 <=1 
C1153: x42+x62 <=1 
C1154: x42+x65-y42_65 <=1 
C1155: x42+x66 <=1 
C1156: x42+x67 <=1 
C1157: x43+x44 <=1 
C1158: x43+x45 <=1 
C1159: x43+x47 <=1 
C1160: x43+x48-y43_48 <=1 
C1161: x43+x49 <=1 
C1162: x43+x50-y43_50 <=1 
C1163: x43+x51-y43_51 <=1 
C1164: x43+x54 <=1 
C1165: x43+x55-y43_55 <=1 
C1166: x43+x56-y43_56 <=1 
C1167: x43+x59-y43_59 <=1 
C1168: x43+x61 <=1 
C1169: x43+x62 <=1 
C1170: x43+x63-y43_63 <=1 
C1171: x43+x66-y43_66 <=1 
C1172: x43+x67 <=1 
C1173: x44+x46-y44_46 <=1 
C1174: x44+x48-y44_48 <=1 
C1175: x44+x49-y44_49 <=1 
C1176: x44+x50-y44_50 <=1 
C1177: x44+x51-y44_51 <=1 
C1178: x44+x52-y44_52 <=1 
C1179: x44+x53-y44_53 <=1 
C1180: x44+x54-y44_54 <=1 
C1181: x44+x56-y44_56 <=1 
C1182: x44+x57 <=1 
C1183: x44+x58-y44_58 <=1 
C1184: x44+x59 <=1 
C1185: x44+x63 <=1 
C1186: x44+x65 <=1 
C1187: x44+x66 <=1 
C1188: x45+x47-y45_47 <=1 
C1189: x45+x49 <=1 
C1190: x45+x50 <=1 
C1191: x45+x52-y45_52 <=1 
C1192: x45+x53 <=1 
C1193: x45+x54-y45_54 <=1 
C1194: x45+x56 <=1 
C1195: x45+x57-y45_57 <=1 
C1196: x45+x59 <=1 
C1197: x45+x60-y45_60 <=1 
C1198: x45+x62-y45_62 <=1 
C1199: x45+x63 <=1 
C1200: x45+x64 <=1 
C1201: x45+x66 <=1 
C1202: x45+x67 <=1 
C1203: x46+x47-y46_47 <=1 
C1204: x46+x48 <=1 
C1205: x46+x49 <=1 
C1206: x46+x51-y46_51 <=1 
C1207: x46+x53-y46_53 <=1 
C1208: x46+x54-y46_54 <=1 
C1209: x46+x55-y46_55 <=1 
C1210: x46+x57-y46_57 <=1 
C1211: x46+x58-y46_58 <=1 
C1212: x46+x59-y46_59 <=1 
C1213: x46+x60-y46_60 <=1 
C1214: x46+x62 <=1 
C1215: x46+x63-y46_63 <=1 
C1216: x46+x65-y46_65 <=1 
C1217: x46+x67 <=1 
C1218: x47+x48-y47_48 <=1 
C1219: x47+x49 <=1 
C1220: x47+x51-y47_51 <=1 
C1221: x47+x52-y47_52 <=1 
C1222: x47+x53-y47_53 <=1 
C1223: x47+x54-y47_54 <=1 
C1224: x47+x56-y47_56 <=1 
C1225: x47+x57 <=1 
C1226: x47+x58-y47_58 <=1 
C1227: x47+x59 <=1 
C1228: x47+x60-y47_60 <=1 
C1229: x47+x62 <=1 
C1230: x47+x63-y47_63 <=1 
C1231: x47+x64-y47_64 <=1 
C1232: x48+x49-y48_49 <=1 
C1233: x48+x50-y48_50 <=1 
C1234: x48+x51 <=1 
C1235: x48+x53 <=1 
C1236: x48+x54 <=1 
C1237: x48+x55 <=1 
C1238: x48+x59 <=1 
C1239: x48+x63 <=1 
C1240: x48+x64-y48_64 <=1 
C1241: x48+x66-y48_66 <=1 
C1242: x48+x67-y48_67 <=1 
C1243: x49+x50 <=1 
C1244: x49+x51-y49_51 <=1 
C1245: x49+x52 <=1 
C1246: x49+x53-y49_53 <=1 
C1247: x49+x54 <=1 
C1248: x49+x56-y49_56 <=1 
C1249: x49+x58 <=1 
C1250: x49+x60 <=1 
C1251: x49+x61-y49_61 <=1 
C1252: x49+x62-y49_62 <=1 
C1253: x49+x63 <=1 
C1254: x49+x64-y49_64 <=1 
C1255: x49+x65 <=1 
C1256: x49+x66-y49_66 <=1 
C1257: x50+x51 <=1 
C1258: x50+x53 <=1 
C1259: x50+x55 <=1 
C1260: x50+x58 <=1 
C1261: x50+x59-y50_59 <=1 
C1262: x50+x61-y50_61 <=1 
C1263: x50+x62 <=1 
C1264: x50+x63 <=1 
C1265: x51+x52-y51_52 <=1 
C1266: x51+x53 <=1 
C1267: x51+x55-y51_55 <=1 
C1268: x51+x56-y51_56 <=1 
C1269: x51+x57-y51_57 <=1 
C1270: x51+x58 <=1 
C1271: x51+x59 <=1 
C1272: x51+x62 <=1 
C1273: x51+x63 <=1 
C1274: x51+x64-y51_64 <=1 
C1275: x51+x65 <=1 
C1276: x51+x66 <=1 
C1277: x52+x53 <=1 
C1278: x52+x54-y52_54 <=1 
C1279: x52+x55 <=1 
C1280: x52+x56 <=1 
C1281: x52+x63 <=1 
C1282: x52+x64-y52_64 <=1 
C1283: x52+x66-y52_66 <=1 
C1284: x53+x56 <=1 
C1285: x53+x58-y53_58 <=1 
C1286: x53+x59 <=1 
C1287: x53+x61-y53_61 <=1 
C1288: x53+x63 <=1 
C1289: x53+x66-y53_66 <=1 
C1290: x53+x67-y53_67 <=1 
C1291: x54+x55-y54_55 <=1 
C1292: x54+x56 <=1 
C1293: x54+x57-y54_57 <=1 
C1294: x54+x60-y54_60 <=1 
C1295: x54+x65 <=1 
C1296: x54+x67-y54_67 <=1 
C1297: x55+x57-y55_57 <=1 
C1298: x55+x59 <=1 
C1299: x55+x60-y55_60 <=1 
C1300: x55+x61-y55_61 <=1 
C1301: x55+x62-y55_62 <=1 
C1302: x55+x65-y55_65 <=1 
C1303: x56+x57-y56_57 <=1 
C1304: x56+x58-y56_58 <=1 
C1305: x56+x59 <=1 
C1306: x56+x62-y56_62 <=1 
C1307: x56+x63-y56_63 <=1 
C1308: x56+x64-y56_64 <=1 
C1309: x56+x65-y56_65 <=1 
C1310: x56+x66-y56_66 <=1 
C1311: x57+x58-y57_58 <=1 
C1312: x57+x59-y57_59 <=1 
C1313: x57+x60 <=1 
C1314: x57+x62 <=1 
C1315: x57+x63 <=1 
C1316: x57+x65-y57_65 <=1 
C1317: x57+x67 <=1 
C1318: x58+x60 <=1 
C1319: x58+x64 <=1 
C1320: x58+x65 <=1 
C1321: x58+x66 <=1 
C1322: x58+x67 <=1 
C1323: x59+x60 <=1 
C1324: x59+x61-y59_61 <=1 
C1325: x59+x64 <=1 
C1326: x59+x65 <=1 
C1327: x59+x67 <=1 
C1328: x60+x62 <=1 
C1329: x60+x64 <=1 
C1330: x60+x65-y60_65 <=1 
C1331: x60+x66-y60_66 <=1 
C1332: x61+x62-y61_62 <=1 
C1333: x61+x63-y61_63 <=1 
C1334: x61+x64 <=1 
C1335: x61+x65 <=1 
C1336: x61+x66-y61_66 <=1 
C1337: x62+x63 <=1 
C1338: x62+x64 <=1 
C1339: x62+x65 <=1 
C1340: x62+x66-y62_66 <=1 
C1341: x62+x67 <=1 
C1342: x63+x64 <=1 
C1343: x63+x65-y63_65 <=1 
C1344: x63+x66-y63_66 <=1 
C1345: x64+x65-y64_65 <=1 
C1346: x64+x66-y64_66 <=1 
C1347: x64+x67 <=1 

binary
x0
x1
x2
x3
x4
x5
x6
x7
x8
x9
x10
x11
x12
x13
x14
x15
x16
x17
x18
x19
x20
x21
x22
x23
x24
x25
x26
x27
x28
x29
x30
x31
x32
x33
x34
x35
x36
x37
x38
x39
x40
x41
x42
x43
x44
x45
x46
x47
x48
x49
x50
x51
x52
x53
x54
x55
x56
x57
x58
x59
x60
x61
x62
x63
x64
x65
x66
x67
