problem_generation/data/GISP/train/er_n=68_m=1347_p=0.60_SET2_setparam=100.00_alpha=0.50_424.sol
objective value:                                 1272
x2                                                  1 	(obj:100)
x3                                                  1 	(obj:100)
x5                                                  1 	(obj:100)
x6                                                  1 	(obj:100)
x8                                                  1 	(obj:100)
x13                                                 1 	(obj:100)
x18                                                 1 	(obj:100)
x23                                                 1 	(obj:100)
x24                                                 1 	(obj:100)
x27                                                 1 	(obj:100)
x32                                                 1 	(obj:100)
x51                                                 1 	(obj:100)
x54                                                 1 	(obj:100)
y13_51                                              1 	(obj:-1)
y3_5                                                1 	(obj:-1)
y6_32                                               1 	(obj:-1)
y8_51                                               1 	(obj:-1)
y6_18                                               1 	(obj:-1)
y8_54                                               1 	(obj:-1)
y3_51                                               1 	(obj:-1)
y8_13                                               1 	(obj:-1)
y3_32                                               1 	(obj:-1)
y18_24                                              1 	(obj:-1)
y3_8                                                1 	(obj:-1)
y6_27                                               1 	(obj:-1)
y2_6                                                1 	(obj:-1)
y2_24                                               1 	(obj:-1)
y6_8                                                1 	(obj:-1)
y2_5                                                1 	(obj:-1)
y2_23                                               1 	(obj:-1)
y32_51                                              1 	(obj:-1)
y2_18                                               1 	(obj:-1)
y24_51                                              1 	(obj:-1)
y5_23                                               1 	(obj:-1)
y5_32                                               1 	(obj:-1)
y18_51                                              1 	(obj:-1)
y13_23                                              1 	(obj:-1)
y5_13                                               1 	(obj:-1)
y18_32                                              1 	(obj:-1)
y18_27                                              1 	(obj:-1)
y18_54                                              1 	(obj:-1)
